30
0 46 30
1 22 5
2 17 5
3 37 25
4 23 18
5 45 24
6 47 18
7 49 14
8 32 20
9 18 26
10 14 6
11 36 9
12 45 15
13 19 1
14 30 14
15 17 11
16 32 7
17 37 9
18 30 2
19 47 29
20 43 26
21 30 17
22 39 25
23 45 9
24 26 23
25 25 18
26 15 21
27 13 8
28 27 11
29 26 17
